/* Cplex Data generated on 2017-12-16 */

k = 69;

b = 31;

AtomicConstraints = {
	 <63, 68>,
	 <63, 69>,
	 <1, 68>,
	 <1, 69>,
	 <64, 63>,
	 <64, 1>,
	 <64, 4>,
	 <64, 5>,
	 <64, 6>,
	 <64, 7>,
	 <64, 11>,
	 <64, 12>,
	 <64, 13>,
	 <64, 67>,
	 <64, 14>,
	 <64, 15>,
	 <64, 68>,
	 <64, 69>,
	 <2, 63>,
	 <2, 1>,
	 <2, 4>,
	 <2, 5>,
	 <2, 6>,
	 <2, 7>,
	 <2, 68>,
	 <2, 69>,
	 <65, 63>,
	 <65, 1>,
	 <65, 2>,
	 <65, 3>,
	 <65, 4>,
	 <65, 5>,
	 <65, 6>,
	 <65, 7>,
	 <65, 68>,
	 <65, 69>,
	 <3, 63>,
	 <3, 1>,
	 <3, 4>,
	 <3, 5>,
	 <3, 6>,
	 <3, 7>,
	 <3, 68>,
	 <3, 69>,
	 <4, 6>,
	 <4, 68>,
	 <4, 69>,
	 <5, 6>,
	 <5, 68>,
	 <5, 69>,
	 <6, 68>,
	 <6, 69>,
	 <7, 63>,
	 <7, 1>,
	 <7, 4>,
	 <7, 5>,
	 <7, 6>,
	 <7, 68>,
	 <7, 69>,
	 <66, 63>,
	 <66, 1>,
	 <66, 4>,
	 <66, 5>,
	 <66, 6>,
	 <66, 8>,
	 <66, 9>,
	 <66, 10>,
	 <66, 11>,
	 <66, 12>,
	 <66, 13>,
	 <66, 67>,
	 <66, 14>,
	 <66, 15>,
	 <66, 68>,
	 <66, 69>,
	 <38, 63>,
	 <38, 1>,
	 <38, 4>,
	 <38, 5>,
	 <38, 6>,
	 <38, 8>,
	 <38, 9>,
	 <38, 10>,
	 <38, 11>,
	 <38, 12>,
	 <38, 13>,
	 <38, 67>,
	 <38, 14>,
	 <38, 15>,
	 <38, 68>,
	 <38, 69>,
	 <8, 9>,
	 <8, 68>,
	 <8, 69>,
	 <9, 68>,
	 <9, 69>,
	 <10, 9>,
	 <10, 68>,
	 <10, 69>,
	 <12, 11>,
	 <12, 13>,
	 <12, 14>,
	 <12, 15>,
	 <12, 68>,
	 <12, 69>,
	 <11, 68>,
	 <11, 69>,
	 <13, 11>,
	 <13, 14>,
	 <13, 68>,
	 <13, 69>,
	 <67, 11>,
	 <67, 13>,
	 <67, 14>,
	 <67, 15>,
	 <67, 68>,
	 <67, 69>,
	 <14, 68>,
	 <14, 69>,
	 <15, 11>,
	 <15, 14>,
	 <15, 68>,
	 <15, 69>,
	 <18, 4>,
	 <18, 5>,
	 <18, 6>,
	 <18, 8>,
	 <18, 9>,
	 <18, 10>,
	 <18, 11>,
	 <18, 12>,
	 <18, 13>,
	 <18, 67>,
	 <18, 14>,
	 <18, 15>,
	 <18, 68>,
	 <18, 16>,
	 <18, 17>,
	 <18, 22>,
	 <18, 69>,
	 <17, 4>,
	 <17, 5>,
	 <17, 6>,
	 <17, 8>,
	 <17, 9>,
	 <17, 10>,
	 <17, 11>,
	 <17, 12>,
	 <17, 13>,
	 <17, 67>,
	 <17, 14>,
	 <17, 15>,
	 <17, 68>,
	 <17, 16>,
	 <17, 69>,
	 <19, 63>,
	 <19, 1>,
	 <19, 4>,
	 <19, 5>,
	 <19, 6>,
	 <19, 8>,
	 <19, 9>,
	 <19, 10>,
	 <19, 11>,
	 <19, 12>,
	 <19, 13>,
	 <19, 67>,
	 <19, 14>,
	 <19, 15>,
	 <19, 68>,
	 <19, 16>,
	 <19, 17>,
	 <19, 18>,
	 <19, 20>,
	 <19, 22>,
	 <19, 69>,
	 <20, 4>,
	 <20, 5>,
	 <20, 6>,
	 <20, 8>,
	 <20, 9>,
	 <20, 10>,
	 <20, 11>,
	 <20, 12>,
	 <20, 13>,
	 <20, 67>,
	 <20, 14>,
	 <20, 15>,
	 <20, 68>,
	 <20, 16>,
	 <20, 17>,
	 <20, 22>,
	 <20, 69>,
	 <21, 1>,
	 <21, 4>,
	 <21, 5>,
	 <21, 6>,
	 <21, 8>,
	 <21, 9>,
	 <21, 10>,
	 <21, 11>,
	 <21, 12>,
	 <21, 13>,
	 <21, 67>,
	 <21, 14>,
	 <21, 15>,
	 <21, 68>,
	 <21, 16>,
	 <21, 17>,
	 <21, 18>,
	 <21, 20>,
	 <21, 22>,
	 <21, 69>,
	 <22, 4>,
	 <22, 5>,
	 <22, 6>,
	 <22, 8>,
	 <22, 9>,
	 <22, 10>,
	 <22, 11>,
	 <22, 12>,
	 <22, 13>,
	 <22, 67>,
	 <22, 14>,
	 <22, 15>,
	 <22, 68>,
	 <22, 16>,
	 <22, 69>,
	 <23, 8>,
	 <23, 9>,
	 <23, 10>,
	 <23, 68>,
	 <23, 16>,
	 <23, 24>,
	 <23, 69>,
	 <24, 8>,
	 <24, 9>,
	 <24, 10>,
	 <24, 68>,
	 <24, 16>,
	 <24, 69>,
	 <25, 8>,
	 <25, 9>,
	 <25, 10>,
	 <25, 68>,
	 <25, 16>,
	 <25, 24>,
	 <25, 69>,
	 <26, 68>,
	 <26, 16>,
	 <26, 69>,
	 <26, 31>,
	 <27, 68>,
	 <27, 16>,
	 <27, 26>,
	 <27, 69>,
	 <27, 31>,
	 <28, 9>,
	 <28, 68>,
	 <28, 16>,
	 <28, 26>,
	 <28, 27>,
	 <28, 69>,
	 <28, 31>,
	 <29, 8>,
	 <29, 9>,
	 <29, 10>,
	 <29, 68>,
	 <29, 16>,
	 <29, 26>,
	 <29, 27>,
	 <29, 28>,
	 <29, 69>,
	 <29, 31>,
	 <30, 8>,
	 <30, 9>,
	 <30, 10>,
	 <30, 68>,
	 <30, 16>,
	 <30, 26>,
	 <30, 27>,
	 <30, 28>,
	 <30, 29>,
	 <30, 69>,
	 <30, 31>,
	 <69, 68>,
	 <31, 68>,
	 <59, 68>,
	 <59, 69>,
	 <59, 33>,
	 <59, 46>,
	 <59, 42>,
	 <59, 45>,
	 <59, 44>,
	 <35, 68>,
	 <35, 69>,
	 <35, 46>,
	 <35, 42>,
	 <35, 45>,
	 <35, 44>,
	 <43, 68>,
	 <43, 69>,
	 <37, 68>,
	 <37, 69>,
	 <37, 43>,
	 <37, 33>,
	 <37, 46>,
	 <37, 61>,
	 <37, 60>,
	 <37, 34>,
	 <36, 68>,
	 <36, 69>,
	 <36, 43>,
	 <36, 59>,
	 <36, 35>,
	 <36, 33>,
	 <36, 46>,
	 <36, 42>,
	 <36, 45>,
	 <36, 44>,
	 <36, 61>,
	 <36, 60>,
	 <36, 34>,
	 <32, 68>,
	 <32, 69>,
	 <32, 43>,
	 <32, 59>,
	 <32, 35>,
	 <32, 33>,
	 <32, 46>,
	 <32, 42>,
	 <32, 45>,
	 <32, 44>,
	 <32, 61>,
	 <32, 60>,
	 <32, 34>,
	 <50, 68>,
	 <50, 69>,
	 <50, 43>,
	 <50, 37>,
	 <50, 33>,
	 <50, 46>,
	 <50, 61>,
	 <50, 60>,
	 <50, 34>,
	 <51, 68>,
	 <51, 69>,
	 <51, 43>,
	 <51, 59>,
	 <51, 37>,
	 <51, 36>,
	 <51, 33>,
	 <51, 46>,
	 <51, 42>,
	 <51, 61>,
	 <51, 60>,
	 <51, 34>,
	 <49, 68>,
	 <49, 69>,
	 <49, 43>,
	 <49, 59>,
	 <49, 35>,
	 <49, 37>,
	 <49, 36>,
	 <49, 32>,
	 <49, 33>,
	 <49, 46>,
	 <49, 42>,
	 <49, 45>,
	 <49, 61>,
	 <49, 60>,
	 <49, 34>,
	 <33, 68>,
	 <33, 69>,
	 <53, 68>,
	 <53, 69>,
	 <53, 43>,
	 <53, 59>,
	 <53, 35>,
	 <53, 36>,
	 <53, 32>,
	 <53, 33>,
	 <53, 46>,
	 <53, 42>,
	 <53, 45>,
	 <53, 44>,
	 <53, 61>,
	 <53, 60>,
	 <53, 34>,
	 <52, 68>,
	 <52, 69>,
	 <52, 43>,
	 <52, 59>,
	 <52, 35>,
	 <52, 36>,
	 <52, 32>,
	 <52, 33>,
	 <52, 46>,
	 <52, 42>,
	 <52, 45>,
	 <52, 44>,
	 <52, 61>,
	 <52, 60>,
	 <52, 34>,
	 <48, 68>,
	 <48, 69>,
	 <48, 43>,
	 <48, 59>,
	 <48, 35>,
	 <48, 36>,
	 <48, 32>,
	 <48, 33>,
	 <48, 46>,
	 <48, 42>,
	 <48, 45>,
	 <48, 44>,
	 <48, 61>,
	 <48, 60>,
	 <48, 34>,
	 <54, 68>,
	 <54, 69>,
	 <54, 43>,
	 <54, 37>,
	 <54, 50>,
	 <54, 33>,
	 <54, 51>,
	 <54, 49>,
	 <54, 46>,
	 <54, 61>,
	 <54, 60>,
	 <54, 34>,
	 <56, 68>,
	 <56, 69>,
	 <56, 43>,
	 <56, 37>,
	 <56, 36>,
	 <56, 50>,
	 <56, 33>,
	 <56, 51>,
	 <56, 49>,
	 <56, 53>,
	 <56, 46>,
	 <56, 42>,
	 <56, 61>,
	 <56, 60>,
	 <56, 34>,
	 <39, 68>,
	 <39, 69>,
	 <39, 43>,
	 <39, 59>,
	 <39, 35>,
	 <39, 37>,
	 <39, 36>,
	 <39, 32>,
	 <39, 50>,
	 <39, 33>,
	 <39, 51>,
	 <39, 49>,
	 <39, 53>,
	 <39, 52>,
	 <39, 46>,
	 <39, 42>,
	 <39, 45>,
	 <39, 61>,
	 <39, 60>,
	 <39, 34>,
	 <41, 68>,
	 <41, 69>,
	 <41, 43>,
	 <41, 59>,
	 <41, 35>,
	 <41, 37>,
	 <41, 36>,
	 <41, 32>,
	 <41, 50>,
	 <41, 33>,
	 <41, 51>,
	 <41, 49>,
	 <41, 53>,
	 <41, 52>,
	 <41, 48>,
	 <41, 46>,
	 <41, 42>,
	 <41, 45>,
	 <41, 44>,
	 <41, 61>,
	 <41, 60>,
	 <41, 34>,
	 <55, 68>,
	 <55, 69>,
	 <55, 43>,
	 <55, 37>,
	 <55, 50>,
	 <55, 33>,
	 <55, 51>,
	 <55, 49>,
	 <55, 54>,
	 <55, 56>,
	 <55, 39>,
	 <55, 46>,
	 <55, 61>,
	 <55, 60>,
	 <55, 34>,
	 <46, 68>,
	 <46, 69>,
	 <40, 68>,
	 <40, 69>,
	 <40, 43>,
	 <40, 37>,
	 <40, 36>,
	 <40, 50>,
	 <40, 33>,
	 <40, 51>,
	 <40, 49>,
	 <40, 53>,
	 <40, 54>,
	 <40, 56>,
	 <40, 39>,
	 <40, 41>,
	 <40, 46>,
	 <40, 42>,
	 <40, 61>,
	 <40, 60>,
	 <40, 34>,
	 <42, 68>,
	 <42, 69>,
	 <58, 68>,
	 <58, 69>,
	 <58, 43>,
	 <58, 59>,
	 <58, 35>,
	 <58, 37>,
	 <58, 36>,
	 <58, 32>,
	 <58, 50>,
	 <58, 33>,
	 <58, 51>,
	 <58, 49>,
	 <58, 53>,
	 <58, 52>,
	 <58, 48>,
	 <58, 54>,
	 <58, 56>,
	 <58, 39>,
	 <58, 41>,
	 <58, 46>,
	 <58, 40>,
	 <58, 42>,
	 <58, 45>,
	 <58, 44>,
	 <58, 61>,
	 <58, 60>,
	 <58, 34>,
	 <62, 68>,
	 <62, 69>,
	 <62, 43>,
	 <62, 59>,
	 <62, 35>,
	 <62, 37>,
	 <62, 36>,
	 <62, 32>,
	 <62, 50>,
	 <62, 33>,
	 <62, 51>,
	 <62, 49>,
	 <62, 53>,
	 <62, 52>,
	 <62, 48>,
	 <62, 54>,
	 <62, 56>,
	 <62, 39>,
	 <62, 41>,
	 <62, 46>,
	 <62, 55>,
	 <62, 40>,
	 <62, 42>,
	 <62, 58>,
	 <62, 45>,
	 <62, 44>,
	 <62, 61>,
	 <62, 60>,
	 <62, 34>,
	 <47, 68>,
	 <47, 69>,
	 <47, 43>,
	 <47, 59>,
	 <47, 35>,
	 <47, 37>,
	 <47, 36>,
	 <47, 32>,
	 <47, 50>,
	 <47, 33>,
	 <47, 51>,
	 <47, 49>,
	 <47, 53>,
	 <47, 52>,
	 <47, 48>,
	 <47, 54>,
	 <47, 56>,
	 <47, 39>,
	 <47, 41>,
	 <47, 46>,
	 <47, 55>,
	 <47, 40>,
	 <47, 42>,
	 <47, 58>,
	 <47, 45>,
	 <47, 44>,
	 <47, 61>,
	 <47, 60>,
	 <47, 34>,
	 <57, 68>,
	 <57, 69>,
	 <57, 43>,
	 <57, 59>,
	 <57, 35>,
	 <57, 37>,
	 <57, 36>,
	 <57, 32>,
	 <57, 50>,
	 <57, 33>,
	 <57, 51>,
	 <57, 49>,
	 <57, 53>,
	 <57, 52>,
	 <57, 48>,
	 <57, 54>,
	 <57, 56>,
	 <57, 39>,
	 <57, 41>,
	 <57, 46>,
	 <57, 55>,
	 <57, 40>,
	 <57, 42>,
	 <57, 58>,
	 <57, 45>,
	 <57, 44>,
	 <57, 61>,
	 <57, 60>,
	 <57, 34>,
	 <45, 68>,
	 <45, 69>,
	 <44, 68>,
	 <44, 69>,
	 <61, 68>,
	 <61, 69>,
	 <61, 43>,
	 <61, 33>,
	 <61, 46>,
	 <60, 68>,
	 <60, 69>,
	 <60, 43>,
	 <60, 33>,
	 <60, 46>,
	 <60, 42>,
	 <34, 68>,
	 <34, 69>,
	 <34, 43>,
	 <34, 33>,
	 <34, 46>,
	 <34, 42>,
	 <34, 45>,
	 }; 

SoftAtomicConstraints = {
	 <3, 2>,
	 <5, 4>,
	 <28, 5>,
	 <25, 6>,
	 <8, 10>,
	 <67, 12>,
	 <11, 14>,
	 <13, 15>,
	 <20, 18>,
	 <21, 19>,
	 <17, 22>,
	 <27, 23>,
	 <26, 24>,
	 <23, 25>,
	 <46, 33>,
	 <59, 34>,
	 <32, 36>,
	 <36, 37>,
	 <41, 39>,
	 <45, 42>,
	 <33, 43>,
	 <44, 45>,
	 <42, 46>,
	 <57, 47>,
	 <53, 49>,
	 <51, 50>,
	 <49, 51>,
	 <48, 52>,
	 <52, 53>,
	 <56, 54>,
	 <40, 55>,
	 <39, 56>,
	 <35, 59>,
	 <34, 60>,
	 <60, 61>,
	 <47, 62>,
	 <1, 63>,
	 <38, 66>,
	 <16, 68>,
	 <31, 69>,
	 }; 

DisjunctiveConstraints = {
	 <64, 14, 64, 45>,
	 <64, 46, 64, 15>,
	 <2, 4, 2, 35>,
	 <2, 6, 2, 37>,
	 <2, 7, 2, 38>,
	 <65, 4, 65, 35>,
	 <65, 6, 65, 37>,
	 <65, 7, 65, 38>,
	 <3, 5, 3, 36>,
	 <7, 4, 7, 35>,
	 <7, 6, 7, 37>,
	 <19, 47, 19, 16>,
	 <59, 35, 59, 34>,
	 <51, 49, 51, 50>,
	 <49, 53, 49, 51>,
	 <53, 52, 53, 49>,
	 <52, 48, 52, 53>,
	 <33, 46, 33, 43>,
	 <54, 33, 2, 54>,
	 <56, 39, 56, 54>,
	 <56, 46, 15, 56>,
	 <39, 41, 39, 56>,
	 <39, 42, 11, 39>,
	 <41, 45, 14, 41>,
	 <55, 33, 2, 55>,
	 <55, 60, 29, 55>,
	 <40, 46, 15, 40>,
	 <40, 34, 3, 40>,
	 <46, 42, 46, 33>,
	 <42, 45, 42, 46>,
	 <62, 35, 4, 62>,
	 <62, 32, 1, 62>,
	 <62, 52, 21, 62>,
	 <62, 42, 62, 11>,
	 <62, 45, 14, 62>,
	 <47, 14, 47, 45>,
	 <47, 59, 47, 28>,
	 <47, 48, 17, 47>,
	 <47, 57, 47, 62>,
	 <47, 44, 13, 47>,
	 <57, 13, 57, 44>,
	 <45, 44, 45, 42>,
	 <60, 34, 60, 61>,
	 <34, 59, 34, 60>,
	 }; 

DirectSuccessors = {
	 }; 

